%NProc=4
%mem=4GB
# PBE1PBE/SDDAll scf=(maxcycle=512) opt=(cartesian,maxcycle=512)  

Cellular Automata job -34.4138684074

0 1 
8  -1.273581  -0.008783  0.044057
1  -1.835175  -0.764471  -0.184211
1  -1.756037  0.829658  0.002613
8  1.433839  0.024152  -0.108290
1  0.451934  -0.026218  -0.046925
1  1.857213  -0.161914  0.742392


