%NProc=4
%mem=4GB
# PBE1PBE/SDDAll scf=(maxcycle=512) opt=(cartesian,maxcycle=512)  

Cellular Automata job -34.4131413496

0 1 
8  -1.281267  0.010056  -0.007306
1  -1.722223  -0.786291  0.323982
1  -1.904697  0.737842  -0.155032
8  1.452221  -0.073890  -0.065725
1  0.475536  -0.011753  -0.160976
1  1.783747  0.570875  0.576270


