%NProc=4
%mem=4GB
# PBE1PBE/SDDAll scf=(maxcycle=512) opt=(cartesian,maxcycle=512)  

Cellular Automata job -34.4138952549

0 1 
8  -1.432322  0.014785  -0.112221
1  -1.886321  -0.104687  0.733877
1  -0.453264  0.018074  -0.011935
8  1.277972  -0.004147  0.054654
1  1.799564  0.802576  -0.073126
1  1.774821  -0.801065  -0.188274


