%NProc=4
%mem=4GB
# PBE1PBE/SDDAll scf=(maxcycle=512) opt=(cartesian,maxcycle=512)  

Cellular Automata job 8

0 1 
O         -1.91184        2.51858        0.03776
H         -2.45605        1.70034        0.13341
H         -1.99111        2.97023        0.91214
O         -1.15964        0.01059        2.94826
H         -1.36631       -0.81983        2.45583
H         -0.79063        0.61774        2.26272

